400
400
320
320
319
319
318
317
317
314
314
313
313
312
312
312
312
311
310
309
309
308
307
306
306
306
306
305
304
304
304
304
304
303
303
302
301
301
300
299
299
299
298
297
296
296
296
295
294
294
292
292
291
290
290
289
289
288
288
288
287
287
285
284
284
284
283
283
283
281
280
280
279
277
277
276
276
275
275
275
274
274
273
273
272
272
271
269
268
268
265
265
264
263
263
263
261
261
261
260
259
259
258
257
257
257
256
256
256
255
254
254
254
254
254
253
253
253
252
251
251
250
250
250
250
249
248
248
248
247
245
244
244
244
243
243
242
240
240
239
239
237
237
237
236
235
234
233
232
232
231
229
228
228
227
227
227
227
226
226
226
226
225
225
225
224
224
224
224
223
223
222
222
222
221
221
220
220
219
219
219
217
216
216
215
215
214
214
212
212
211
211
210
208
207
206
205
204
204
204
202
202
200
200
200
199
198
198
198
198
197
197
197
196
196
195
195
195
194
192
192
191
191
190
190
190
189
189
189
188
186
185
183
182
181
181
181
180
180
179
179
179
179
177
177
176
176
175
175
174
174
172
171
171
171
170
170
169
169
169
168
168
168
168
167
167
167
166
161
161
161
160
159
159
158
157
157
156
156
156
155
155
153
153
152
152
152
152
151
150
150
149
148
148
147
146
145
144
144
143
142
142
142
142
141
141
141
141
140
140
139
138
137
137
137
136
136
135
134
133
132
132
130
129
128
127
127
125
125
124
122
121
120
120
116
116
115
115
115
113
112
112
112
112
112
111
111
111
110
109
109
108
108
108
108
107
106
106
105
104
103
103
103
102
102
102
101
101
100
100
100
99
99
98
98
98
97
97
97
96
95
95
95
94
93
93
92
92
91
89
88
88
87
86
86
85
84
84
83
82
81
80
